unknown
(model
; cardinality of BoundSet is 2
(declare-sort BoundSet 0)
; rep: @uc_BoundSet_0
; rep: @uc_BoundSet_1
; cardinality of UnboundSet is 1
(declare-sort UnboundSet 0)
(declare-fun groundTerm_3 () UnboundSet)
(define-fun IsSeenWell ((BOUND_VARIABLE_382 BoundSet) (BOUND_VARIABLE_383 BoundSet)) Bool true)
(define-fun IsSitsUnderLights ((BOUND_VARIABLE_382 BoundSet) (BOUND_VARIABLE_383 BoundSet)) Bool false)
(define-fun IsSignsOnWall ((BOUND_VARIABLE_398 BoundSet)) Bool false)
)
sat
(model
; cardinality of BoundSet is 1
(declare-sort BoundSet 0)
; rep: @uc_BoundSet_0
; cardinality of UnboundSet is 1
(declare-sort UnboundSet 0)
(declare-fun groundTerm_5 () UnboundSet)
(define-fun IsSeenWell ((BOUND_VARIABLE_411 BoundSet) (BOUND_VARIABLE_412 BoundSet)) Bool true)
(define-fun IsSitsUnderLights ((BOUND_VARIABLE_411 BoundSet) (BOUND_VARIABLE_412 BoundSet)) Bool false)
(define-fun IsSignsOnWall ((BOUND_VARIABLE_423 BoundSet)) Bool false)
)
